
Gurobi 11.0.3 (win64) logging started Thu Sep  5 11:39:09 2024

Set parameter LogFile to value "C:\Users\ealvarezq\Desktop\L.Cont_Investments_per_hour\IEEE118_mod2_ByStages_nc60/openStarNet_IEEE118_mod2_ByStages_nc60.log"
Set parameter Method to value 2
Set parameter MIPFocus to value 1
Set parameter Presolve to value 2
Set parameter RINS to value 100
Set parameter MIPGap to value 0.01
Set parameter Threads to value 24
Set parameter TimeLimit to value 259200
Set parameter IterationLimit to value 760000000
Gurobi Optimizer version 11.0.3 build v11.0.3rc0 (win64 - Windows Server 2019.0 (17763.2))

CPU model: AMD Ryzen Threadripper PRO 3955WX 16-Cores, instruction set [SSE2|AVX|AVX2]
Thread count: 16 physical cores, 32 logical processors, using up to 24 threads

Optimize a model with 85263 rows, 63231 columns and 219978 nonzeros
Model fingerprint: 0x35678781
Variable types: 63197 continuous, 34 integer (34 binary)
Coefficient statistics:
  Matrix range     [5e-04, 9e+03]
  Objective range  [1e+00, 1e+00]
  Bounds range     [1e-04, 2e+00]
  RHS range        [2e-04, 2e+00]
Presolve removed 57695 rows and 29331 columns
Presolve time: 0.35s
Presolved: 27568 rows, 33900 columns, 100771 nonzeros
Variable types: 33866 continuous, 34 integer (34 binary)
Root relaxation presolved: 27568 rows, 33900 columns, 100771 nonzeros

Root barrier log...

Ordering time: 0.02s

Barrier statistics:
 Dense cols : 34
 AA' NZ     : 1.249e+05
 Factor NZ  : 4.836e+05 (roughly 30 MB of memory)
 Factor Ops : 1.011e+07 (less than 1 second per iteration)
 Threads    : 23

                  Objective                Residual
Iter       Primal          Dual         Primal    Dual     Compl     Time
   0   9.01715393e+06 -8.98607127e+08  1.57e+01 2.89e+03  4.91e+04     1s
   1   2.15385149e+06 -3.47213679e+08  3.42e+00 1.00e-08  1.01e+04     1s
   2   6.26580163e+05 -2.79964322e+08  7.24e-01 8.01e-09  4.57e+03     1s
   3   3.81581905e+05 -5.02400904e+07  2.57e-01 3.99e-09  7.98e+02     1s
   4   2.39875813e+05 -1.07532403e+07  2.31e-02 1.06e-09  1.41e+02     1s
   5   1.75651923e+05 -2.63124897e+06  6.10e-03 2.39e-10  3.49e+01     1s
   6   1.09798994e+05 -7.17761743e+05  2.17e-03 6.17e-11  1.02e+01     1s
   7   5.03289303e+04 -1.90485419e+05  8.09e-04 7.64e-11  2.97e+00     1s
   8   1.93896505e+04 -4.26848620e+04  2.25e-04 8.55e-11  7.63e-01     1s
   9   1.29676902e+04 -1.86233640e+04  1.35e-04 4.18e-11  3.88e-01     1s
  10   6.02940386e+03 -6.71313833e+03  4.77e-05 1.55e-11  1.57e-01     1s
  11   4.26334250e+03 -2.90899790e+03  2.89e-05 7.50e-12  8.82e-02     1s
  12   2.78769445e+03 -7.77668935e+02  1.46e-05 5.21e-12  4.38e-02     1s
  13   2.12597656e+03 -1.37494817e+02  8.60e-06 5.89e-12  2.78e-02     1s
  14   1.63955518e+03  5.45804151e+02  4.34e-06 7.24e-12  1.34e-02     1s
  15   1.34984215e+03  8.50475945e+02  1.96e-06 8.21e-12  6.14e-03     1s
  16   1.21248832e+03  9.62973702e+02  8.80e-07 6.81e-12  3.07e-03     1s
  17   1.16222405e+03  1.02976454e+03  5.03e-07 7.49e-12  1.63e-03     1s
  18   1.13214728e+03  1.05804178e+03  2.81e-07 5.30e-12  9.11e-04     1s
  19   1.11606337e+03  1.07271520e+03  1.64e-07 5.47e-12  5.33e-04     1s
  20   1.10624683e+03  1.08280085e+03  9.19e-08 5.01e-12  2.88e-04     1s
  21   1.09714504e+03  1.08866341e+03  2.75e-08 5.32e-12  1.04e-04     1s
  22   1.09399624e+03  1.09189868e+03  7.03e-09 6.21e-12  2.58e-05     1s
  23   1.09321612e+03  1.09250981e+03  2.22e-09 6.29e-12  8.68e-06     1s
  24   1.09297549e+03  1.09272422e+03  2.35e-09 5.75e-12  3.09e-06     1s
  25   1.09289931e+03  1.09278575e+03  2.40e-09 4.06e-12  1.40e-06     2s
  26   1.09286182e+03  1.09282959e+03  1.33e-09 9.28e-12  3.96e-07     2s
  27   1.09284127e+03  1.09283868e+03  2.08e-10 1.01e-11  3.18e-08     2s
  28   1.09283952e+03  1.09283938e+03  6.60e-10 4.36e-12  1.74e-09     2s
  29   1.09283946e+03  1.09283946e+03  2.56e-10 7.86e-12  2.76e-11     2s

Barrier solved model in 29 iterations and 1.59 seconds (0.92 work units)
Optimal objective 1.09283946e+03


Root relaxation: objective 1.092839e+03, 2171 iterations, 1.52 seconds (0.79 work units)

    Nodes    |    Current Node    |     Objective Bounds      |     Work
 Expl Unexpl |  Obj  Depth IntInf | Incumbent    BestBd   Gap | It/Node Time

     0     0 1092.83946    0   23          - 1092.83946      -     -    2s
H    0     0                    6943.9301004 1092.83946  84.3%     -    3s
H    0     0                    3322.2499916 1092.83946  67.1%     -    3s
     0     0 1112.30559    0   22 3322.24999 1112.30559  66.5%     -    5s
H    0     0                    1281.2741031 1112.30559  13.2%     -    6s
     0     0 1119.48751    0   23 1281.27410 1119.48751  12.6%     -    6s
     0     0 1119.48751    0   22 1281.27410 1119.48751  12.6%     -    6s
     0     0 1119.48751    0   21 1281.27410 1119.48751  12.6%     -    7s
     0     0 1119.48751    0   21 1281.27410 1119.48751  12.6%     -    7s
     0     0 1119.48751    0   21 1281.27410 1119.48751  12.6%     -    8s
     0     0 1119.48751    0   21 1281.27410 1119.48751  12.6%     -    9s
     0     0 1119.48751    0   21 1281.27410 1119.48751  12.6%     -    9s
     0     0 1119.48751    0   20 1281.27410 1119.48751  12.6%     -   11s
     0     0 1119.48751    0   20 1281.27410 1119.48751  12.6%     -   11s
     0     0 1119.48751    0   20 1281.27410 1119.48751  12.6%     -   12s
     0     0 1138.23981    0   20 1281.27410 1138.23981  11.2%     -   13s
H    0     0                    1254.5102557 1138.23981  9.27%     -  182s
     0     2 1138.23981    0   20 1254.51026 1138.23981  9.27%     -  183s
     3     8 1155.65818    2   19 1254.51026 1141.95517  8.97%  1098  186s
    15    30 1226.86182    4   18 1254.51026 1161.82237  7.39%   871  190s
    55    53 1197.41335    6   16 1254.51026 1176.16513  6.25%   920  196s
   103    77 1223.18512    7   15 1254.51026 1176.51036  6.22%   784  203s
   127    85 1236.94030    8   12 1254.51026 1176.51036  6.22%   781  205s
   190    96 1232.38540    8   14 1254.51026 1176.51036  6.22%   679  216s
   257   104 1231.88982   10   10 1254.51026 1176.51036  6.22%   646  227s
   291   117     cutoff   11      1254.51026 1176.51036  6.22%   709  231s
   427   127     cutoff   12      1254.51026 1176.51036  6.22%   615  236s
   527   131     cutoff   14      1254.51026 1187.00355  5.38%   554  245s
   581   122     cutoff    7      1254.51026 1187.00355  5.38%   579  250s
   707   126 1206.03511    8   15 1254.51026 1187.00355  5.38%   538  255s
   755   116 1222.93892    9   12 1254.51026 1187.00355  5.38%   524  261s
   813   113 1231.42886   10   12 1254.51026 1187.00355  5.38%   520  268s
   902    87 1246.56022   11   10 1254.51026 1187.00355  5.38%   504  270s
  1098    46 1227.22672    8   13 1254.51026 1196.24498  4.64%   460  284s
  1160    31     cutoff    9      1254.51026 1213.92451  3.24%   449  289s
  1210    37 1237.63960    9   12 1254.51026 1221.01600  2.67%   451  293s
  1254    17 1251.46385   10   11 1254.51026 1223.32817  2.49%   453  295s

Cutting planes:
  Implied bound: 139
  MIR: 330
  RLT: 2

Explored 1389 nodes (592771 simplex iterations) in 297.79 seconds (269.53 work units)
Thread count was 24 (of 32 available processors)

Solution count 4: 1254.51 1281.27 3322.25 6943.93 

Optimal solution found (tolerance 1.00e-02)
Best objective 1.254510255749e+03, best bound 1.247426647795e+03, gap 0.5647%

Gurobi 11.0.3 (win64) logging started Thu Sep  5 11:44:31 2024

Set parameter LogFile to value "C:\Users\ealvarezq\Desktop\L.Cont_Investments_per_hour\IEEE118_mod2_ByStages_nc60/openStarNet_IEEE118_mod2_ByStages_nc60.log"
Set parameter Method to value 2
Set parameter MIPFocus to value 1
Set parameter Presolve to value 2
Set parameter RINS to value 100
Set parameter MIPGap to value 0.01
Set parameter Threads to value 24
Set parameter TimeLimit to value 259200
Set parameter IterationLimit to value 760000000
Gurobi Optimizer version 11.0.3 build v11.0.3rc0 (win64 - Windows Server 2019.0 (17763.2))

CPU model: AMD Ryzen Threadripper PRO 3955WX 16-Cores, instruction set [SSE2|AVX|AVX2]
Thread count: 16 physical cores, 32 logical processors, using up to 24 threads

Optimize a model with 85263 rows, 63197 columns and 211784 nonzeros
Model fingerprint: 0x9f34f0c5
Coefficient statistics:
  Matrix range     [5e-04, 9e+03]
  Objective range  [1e+00, 1e+00]
  Bounds range     [1e-04, 2e+00]
  RHS range        [2e-04, 3e+02]
Presolve removed 63505 rows and 27837 columns
Presolve time: 0.23s
Presolved: 21758 rows, 35535 columns, 85051 nonzeros

Ordering time: 0.01s

Barrier statistics:
 AA' NZ     : 7.216e+04
 Factor NZ  : 2.868e+05 (roughly 25 MB of memory)
 Factor Ops : 4.155e+06 (less than 1 second per iteration)
 Threads    : 24

                  Objective                Residual
Iter       Primal          Dual         Primal    Dual     Compl     Time
   0   1.58418664e+07 -4.99905110e+08  8.75e+01 3.09e+02  2.55e+04     1s
   1   1.76671333e+06 -1.47607794e+08  8.49e+00 2.50e-12  3.33e+03     1s
   2   4.32531317e+05 -2.63843512e+07  1.30e+00 2.27e-12  4.81e+02     1s
   3   1.84841587e+05 -3.68249884e+06  3.01e-02 1.36e-12  5.12e+01     1s
   4   7.72016441e+04 -5.84024127e+05  5.84e-03 1.51e-12  8.57e+00     2s
   5   3.19444633e+04 -1.48247466e+05  1.45e-03 5.68e-13  2.32e+00     2s
   6   1.20544280e+04 -4.49636856e+04  3.10e-04 6.04e-13  7.35e-01     2s
   7   7.45507592e+03 -1.63999388e+04  1.35e-04 5.45e-13  3.07e-01     2s
   8   5.61355329e+03 -6.68826222e+03  8.74e-05 5.79e-13  1.58e-01     2s
   9   3.14278811e+03 -3.29202092e+03  3.27e-05 6.78e-13  8.29e-02     2s
  10   2.24399025e+03 -8.99133450e+02  1.52e-05 3.56e-13  4.05e-02     2s
  11   1.83696752e+03  1.14987256e+02  8.35e-06 3.86e-13  2.22e-02     2s
  12   1.61234579e+03  5.78913173e+02  4.87e-06 4.97e-13  1.33e-02     2s
  13   1.44934935e+03  8.31416629e+02  2.50e-06 3.96e-13  7.96e-03     2s
  14   1.35139446e+03  1.03046046e+03  1.13e-06 4.84e-13  4.13e-03     2s
  15   1.30621915e+03  1.14038073e+03  5.74e-07 5.04e-13  2.14e-03     2s
  16   1.27283285e+03  1.19791969e+03  1.81e-07 7.34e-13  9.65e-04     2s
  17   1.26626093e+03  1.22841845e+03  1.13e-07 5.16e-13  4.87e-04     2s
  18   1.25925030e+03  1.24471802e+03  4.13e-08 4.93e-13  1.87e-04     2s
  19   1.25670093e+03  1.25041672e+03  1.84e-08 5.59e-13  8.09e-05     3s
  20   1.25530897e+03  1.25318103e+03  6.35e-09 3.86e-13  2.74e-05     3s
  21   1.25475845e+03  1.25433355e+03  1.73e-09 5.97e-13  5.47e-06     3s
  22   1.25461980e+03  1.25446129e+03  1.10e-09 5.95e-13  2.04e-06     3s
  23   1.25452613e+03  1.25449885e+03  4.01e-10 5.68e-13  3.51e-07     3s
  24   1.25451390e+03  1.25450969e+03  7.49e-09 4.04e-13  5.42e-08     3s
  25   1.25451031e+03  1.25451011e+03  6.38e-10 6.86e-13  2.66e-09     3s
  26   1.25451026e+03  1.25451025e+03  3.21e-10 6.01e-13  3.62e-11     4s

Barrier solved model in 26 iterations and 3.54 seconds (0.39 work units)
Optimal objective 1.25451026e+03

Crossover log...

    6245 DPushes remaining with DInf 0.0000000e+00                 4s
       0 DPushes remaining with DInf 0.0000000e+00                 4s

     271 PPushes remaining with PInf 0.0000000e+00                 4s
       0 PPushes remaining with PInf 0.0000000e+00                 4s

  Push phase complete: Pinf 0.0000000e+00, Dinf 2.9690201e-12      4s

Iteration    Objective       Primal Inf.    Dual Inf.      Time
    1735    1.2545103e+03   0.000000e+00   0.000000e+00      4s

Solved in 1735 iterations and 3.73 seconds (0.46 work units)
Optimal objective  1.254510256e+03
